
-3.84
-3.66
-3.52
-3.38
-3.24
-3.1
-2.82
-2.56
-2.24
-1.58
-1.08
-0.68
-0.54
-0.36
-0.28
-0.24
-0.14
-0.1
-0.06
-0.06
-0.06
-0.06
-0.04
-0.04
-0.04
-0.04
-0.04
-0.04
-0.04
-0.04
-0.04
-0.04
-0.04
-0.04
-0.04